65	65	65	65	65	65	14	14	65	65	65	
65	65	65	65	44	14	14	14	14	14	65	
65	65	139	139	139	44	14	14	14	139	139	
65	139	139	139	139	139	44	14	65	139	139	
65	128	131	130	131	139	139	43	65	65	65	
15	15	15	15	130	139	139	139	65	65	65	
65	139	130	139	139	139	139	139	65	65	65	
65	65	119	139	139	139	130	65	65	65	65	
65	65	14	14	14	14	14	65	65	65	65	
65	14	14	14	14	14	14	14	65	65	65	
65	128	139	139	139	14	14	130	65	65	65	
139	139	131	130	17	139	14	14	139	65	65	
139	131	139	139	128	130	14	14	139	65	65	
139	131	139	130	17	139	139	139	139	65	65	
139	126	139	139	139	139	139	139	139	65	65	
65	139	130	139	139	139	139	139	65	65	65	
65	65	139	139	139	139	139	65	65	65	65	
